\ Model Transportation Problem with Perishable Goods
\ LP format - for model browsing. Use MPS format to capture full model detail.
Minimize
  2 x[0,0] + 2 x[0,1] + 2 x[0,2] + 2 x[0,3] + 2 x[0,4] + 2 x[0,5] + 2 x[0,6]
   + 2 x[0,7] + 2 x[0,8] + 2 x[0,9] + 2 x[1,0] + 2 x[1,1] + 2 x[1,2]
   + 2 x[1,3] + 2 x[1,4] + 2 x[1,5] + 2 x[1,6] + 2 x[1,7] + 2 x[1,8]
   + 2 x[1,9] + 2 x[2,0] + 2 x[2,1] + 2 x[2,2] + 2 x[2,3] + 2 x[2,4]
   + 2 x[2,5] + 2 x[2,6] + 2 x[2,7] + 2 x[2,8] + 2 x[2,9] + 2 x[3,0]
   + 2 x[3,1] + 2 x[3,2] + 2 x[3,3] + 2 x[3,4] + 2 x[3,5] + 2 x[3,6]
   + 2 x[3,7] + 2 x[3,8] + 2 x[3,9] + 2 x[4,0] + 2 x[4,1] + 2 x[4,2]
   + 2 x[4,3] + 2 x[4,4] + 2 x[4,5] + 2 x[4,6] + 2 x[4,7] + 2 x[4,8]
   + 2 x[4,9] + 2 x[5,0] + 2 x[5,1] + 2 x[5,2] + 2 x[5,3] + 2 x[5,4]
   + 2 x[5,5] + 2 x[5,6] + 2 x[5,7] + 2 x[5,8] + 2 x[5,9] + 2 x[6,0]
   + 2 x[6,1] + 2 x[6,2] + 2 x[6,3] + 2 x[6,4] + 2 x[6,5] + 2 x[6,6]
   + 2 x[6,7] + 2 x[6,8] + 2 x[6,9] + 2 x[7,0] + 2 x[7,1] + 2 x[7,2]
   + 2 x[7,3] + 2 x[7,4] + 2 x[7,5] + 2 x[7,6] + 2 x[7,7] + 2 x[7,8]
   + 2 x[7,9] + 2 x[8,0] + 2 x[8,1] + 2 x[8,2] + 2 x[8,3] + 2 x[8,4]
   + 2 x[8,5] + 2 x[8,6] + 2 x[8,7] + 2 x[8,8] + 2 x[8,9] + 2 x[9,0]
   + 2 x[9,1] + 2 x[9,2] + 2 x[9,3] + 2 x[9,4] + 2 x[9,5] + 2 x[9,6]
   + 2 x[9,7] + 2 x[9,8] + 2 x[9,9]
Subject To
 supply_0: x[0,0] + x[0,1] + x[0,2] + x[0,3] + x[0,4] + x[0,5] + x[0,6]
   + x[0,7] + x[0,8] + x[0,9] <= 10
 supply_1: x[1,0] + x[1,1] + x[1,2] + x[1,3] + x[1,4] + x[1,5] + x[1,6]
   + x[1,7] + x[1,8] + x[1,9] <= 10
 supply_2: x[2,0] + x[2,1] + x[2,2] + x[2,3] + x[2,4] + x[2,5] + x[2,6]
   + x[2,7] + x[2,8] + x[2,9] <= 10
 supply_3: x[3,0] + x[3,1] + x[3,2] + x[3,3] + x[3,4] + x[3,5] + x[3,6]
   + x[3,7] + x[3,8] + x[3,9] <= 10
 supply_4: x[4,0] + x[4,1] + x[4,2] + x[4,3] + x[4,4] + x[4,5] + x[4,6]
   + x[4,7] + x[4,8] + x[4,9] <= 10
 supply_5: x[5,0] + x[5,1] + x[5,2] + x[5,3] + x[5,4] + x[5,5] + x[5,6]
   + x[5,7] + x[5,8] + x[5,9] <= 10
 supply_6: x[6,0] + x[6,1] + x[6,2] + x[6,3] + x[6,4] + x[6,5] + x[6,6]
   + x[6,7] + x[6,8] + x[6,9] <= 10
 supply_7: x[7,0] + x[7,1] + x[7,2] + x[7,3] + x[7,4] + x[7,5] + x[7,6]
   + x[7,7] + x[7,8] + x[7,9] <= 10
 supply_8: x[8,0] + x[8,1] + x[8,2] + x[8,3] + x[8,4] + x[8,5] + x[8,6]
   + x[8,7] + x[8,8] + x[8,9] <= 10
 supply_9: x[9,0] + x[9,1] + x[9,2] + x[9,3] + x[9,4] + x[9,5] + x[9,6]
   + x[9,7] + x[9,8] + x[9,9] <= 10
 demand_0: x[0,0] + x[1,0] + x[2,0] + x[3,0] + x[4,0] + x[5,0] + x[6,0]
   + x[7,0] + x[8,0] + x[9,0] >= 1
 demand_1: x[0,1] + x[1,1] + x[2,1] + x[3,1] + x[4,1] + x[5,1] + x[6,1]
   + x[7,1] + x[8,1] + x[9,1] >= 1
 demand_2: x[0,2] + x[1,2] + x[2,2] + x[3,2] + x[4,2] + x[5,2] + x[6,2]
   + x[7,2] + x[8,2] + x[9,2] >= 1
 demand_3: x[0,3] + x[1,3] + x[2,3] + x[3,3] + x[4,3] + x[5,3] + x[6,3]
   + x[7,3] + x[8,3] + x[9,3] >= 1
 demand_4: x[0,4] + x[1,4] + x[2,4] + x[3,4] + x[4,4] + x[5,4] + x[6,4]
   + x[7,4] + x[8,4] + x[9,4] >= 1
 demand_5: x[0,5] + x[1,5] + x[2,5] + x[3,5] + x[4,5] + x[5,5] + x[6,5]
   + x[7,5] + x[8,5] + x[9,5] >= 1
 demand_6: x[0,6] + x[1,6] + x[2,6] + x[3,6] + x[4,6] + x[5,6] + x[6,6]
   + x[7,6] + x[8,6] + x[9,6] >= 1
 demand_7: x[0,7] + x[1,7] + x[2,7] + x[3,7] + x[4,7] + x[5,7] + x[6,7]
   + x[7,7] + x[8,7] + x[9,7] >= 1
 demand_8: x[0,8] + x[1,8] + x[2,8] + x[3,8] + x[4,8] + x[5,8] + x[6,8]
   + x[7,8] + x[8,8] + x[9,8] >= 1
 demand_9: x[0,9] + x[1,9] + x[2,9] + x[3,9] + x[4,9] + x[5,9] + x[6,9]
   + x[7,9] + x[8,9] + x[9,9] >= 1
 perishability_0_0: 46.53458256850593 x[0,0] <= 1e+06
 perishability_0_1: 33.49035690675426 x[0,1] <= 1e+06
 perishability_0_2: 25.00203458684345 x[0,2] <= 1e+06
 perishability_0_3: 11.35312668711022 x[0,3] <= 1e+06
 perishability_0_4: 41.47021738036313 x[0,4] <= 1e+06
 perishability_0_5: 45.97898740781318 x[0,5] <= 1e+06
 perishability_0_6: 44.13353250203761 x[0,6] <= 1e+06
 perishability_0_7: 6.103110839336892 x[0,7] <= 1e+06
 perishability_0_8: 45.58352912404819 x[0,8] <= 1e+06
 perishability_0_9: 21.82946034067717 x[0,9] <= 1e+06
 perishability_1_0: 3.229384148430138 x[1,0] <= 1e+06
 perishability_1_1: 21.50236251325574 x[1,1] <= 1e+06
 perishability_1_2: 39.14377571272032 x[1,2] <= 1e+06
 perishability_1_3: 5.140850471604498 x[1,3] <= 1e+06
 perishability_1_4: 10.1845250328077 x[1,4] <= 1e+06
 perishability_1_5: 50.72521392135503 x[1,5] <= 1e+06
 perishability_1_6: 7.230402992036847 x[1,6] <= 1e+06
 perishability_1_7: 24.64281941784179 x[1,7] <= 1e+06
 perishability_1_8: 46.93017412175104 x[1,8] <= 1e+06
 perishability_1_9: 23.18847095704415 x[1,9] <= 1e+06
 perishability_2_0: 4.750381096472754 x[2,0] <= 1e+06
 perishability_2_1: 2.040915549588066 x[2,1] <= 1e+06
 perishability_2_2: 29.16639910782429 x[2,2] <= 1e+06
 perishability_2_3: 48.56845209170454 x[2,3] <= 1e+06
 perishability_2_4: 31.49507891733487 x[2,4] <= 1e+06
 perishability_2_5: 38.26306635845643 x[2,5] <= 1e+06
 perishability_2_6: 6.585460521655864 x[2,6] <= 1e+06
 perishability_2_7: 13.36986134744055 x[2,7] <= 1e+06
 perishability_2_8: 7.829041028468548 x[2,8] <= 1e+06
 perishability_2_9: 50.58977004774503 x[2,9] <= 1e+06
 perishability_3_0: 35.3593128722951 x[3,0] <= 1e+06
 perishability_3_1: 15.05060849817851 x[3,1] <= 1e+06
 perishability_3_2: 20.35246600024611 x[3,2] <= 1e+06
 perishability_3_3: 43.68254230985506 x[3,3] <= 1e+06
 perishability_3_4: 38.50238174131792 x[3,4] <= 1e+06
 perishability_3_5: 48.3120049900647 x[3,5] <= 1e+06
 perishability_3_6: 23.03089180116022 x[3,6] <= 1e+06
 perishability_3_7: 14.75728330313467 x[3,7] <= 1e+06
 perishability_3_8: 33.26075208880317 x[3,8] <= 1e+06
 perishability_3_9: 31.52679834835521 x[3,9] <= 1e+06
 perishability_4_0: 23.62517979156194 x[4,0] <= 1e+06
 perishability_4_1: 27.97732951388649 x[4,1] <= 1e+06
 perishability_4_2: 20.59094910252761 x[4,2] <= 1e+06
 perishability_4_3: 40.80549555675121 x[4,3] <= 1e+06
 perishability_4_4: 47.88234820752738 x[4,4] <= 1e+06
 perishability_4_5: 28.38559891644416 x[4,5] <= 1e+06
 perishability_4_6: 3.25330671559574 x[4,6] <= 1e+06
 perishability_4_7: 35.96541023602317 x[4,7] <= 1e+06
 perishability_4_8: 50.82538259703001 x[4,8] <= 1e+06
 perishability_4_9: 15.91538512840429 x[4,9] <= 1e+06
 perishability_5_0: 41.43664677277346 x[5,0] <= 1e+06
 perishability_5_1: 45.19768864022497 x[5,1] <= 1e+06
 perishability_5_2: 34.05258696188054 x[5,2] <= 1e+06
 perishability_5_3: 48.02757815459254 x[5,3] <= 1e+06
 perishability_5_4: 7.806257891269209 x[5,4] <= 1e+06
 perishability_5_5: 37.55914131478427 x[5,5] <= 1e+06
 perishability_5_6: 22.65967116771308 x[5,6] <= 1e+06
 perishability_5_7: 23.81255664517022 x[5,7] <= 1e+06
 perishability_5_8: 49.87426473089299 x[5,8] <= 1e+06
 perishability_5_9: 22.40685762041736 x[5,9] <= 1e+06
 perishability_6_0: 46.78693845621026 x[6,0] <= 1e+06
 perishability_6_1: 21.13960861643203 x[6,1] <= 1e+06
 perishability_6_2: 39.80691232018275 x[6,2] <= 1e+06
 perishability_6_3: 29.29489773019693 x[6,3] <= 1e+06
 perishability_6_4: 6.224870299329318 x[6,4] <= 1e+06
 perishability_6_5: 24.43384538121718 x[6,5] <= 1e+06
 perishability_6_6: 12.05978276096987 x[6,6] <= 1e+06
 perishability_6_7: 20.04812481816596 x[6,7] <= 1e+06
 perishability_6_8: 34.12431882810694 x[6,8] <= 1e+06
 perishability_6_9: 43.16484465167636 x[6,9] <= 1e+06
 perishability_7_0: 40.4418506147619 x[7,0] <= 1e+06
 perishability_7_1: 5.437774340873778 x[7,1] <= 1e+06
 perishability_7_2: 34.62080916479668 x[7,2] <= 1e+06
 perishability_7_3: 2.133304899729779 x[7,3] <= 1e+06
 perishability_7_4: 47.18787209771444 x[7,4] <= 1e+06
 perishability_7_5: 8.813590037080731 x[7,5] <= 1e+06
 perishability_7_6: 10.04523189482047 x[7,6] <= 1e+06
 perishability_7_7: 22.59493962317095 x[7,7] <= 1e+06
 perishability_7_8: 3.039603092650134 x[7,8] <= 1e+06
 perishability_7_9: 10.49528491264301 x[7,9] <= 1e+06
 perishability_8_0: 46.53458256850593 x[8,0] <= 1e+06
 perishability_8_1: 33.49035690675426 x[8,1] <= 1e+06
 perishability_8_2: 25.00203458684345 x[8,2] <= 1e+06
 perishability_8_3: 11.35312668711022 x[8,3] <= 1e+06
 perishability_8_4: 41.47021738036313 x[8,4] <= 1e+06
 perishability_8_5: 45.97898740781318 x[8,5] <= 1e+06
 perishability_8_6: 44.13353250203761 x[8,6] <= 1e+06
 perishability_8_7: 6.103110839336892 x[8,7] <= 1e+06
 perishability_8_8: 45.58352912404819 x[8,8] <= 1e+06
 perishability_8_9: 21.82946034067717 x[8,9] <= 1e+06
 perishability_9_0: 3.229384148430138 x[9,0] <= 1e+06
 perishability_9_1: 21.50236251325574 x[9,1] <= 1e+06
 perishability_9_2: 39.14377571272032 x[9,2] <= 1e+06
 perishability_9_3: 5.140850471604498 x[9,3] <= 1e+06
 perishability_9_4: 10.1845250328077 x[9,4] <= 1e+06
 perishability_9_5: 50.72521392135503 x[9,5] <= 1e+06
 perishability_9_6: 7.230402992036847 x[9,6] <= 1e+06
 perishability_9_7: 24.64281941784179 x[9,7] <= 1e+06
 perishability_9_8: 46.93017412175104 x[9,8] <= 1e+06
 perishability_9_9: 23.18847095704415 x[9,9] <= 1e+06
Bounds
End
